131
100
7
28
7
8
1
40
9
48
21
20
36
24
2
3
16
32
9
27
20
7
4
44
2
7
50
50
31
16
21
17
8
43
47
11
21
19
40
1
8
29
38
2
20
14
49
23
20
24
31
34
43
25
13
15
30
11
10
18
44
5
24
16
9
19
6
38
42
3
24
29
32
4
2
7
32
48
35
25
31
17
8
23
13
25
14
1
41
27
50
29
31
16
2
48
3
50
31
20
29
18
40
32
2
46
39
17
6
14
3
15
35
40
2
12
46
5
16
4
12
34
31
46
23
28
2
44
28
34
47
44
28
